NAME : local_9
TYPE : ATSP
DIMENSION : 10
EDGE_WEIGHT_TYPE : EXPLICIT
EDGE_WEIGHT_FORMAT : FULL_MATRIX
EDGE_WEIGHT_SECTION
0 271 180 10000000 10000000 659 10000000 867 832 739 
0 0 356 10000000 10000000 634 10000000 668 665 743 
0 356 0 10000000 10000000 828 10000000 991 974 907 
0 10000000 10000000 0 273 10000000 310 10000000 10000000 10000000 
0 10000000 10000000 273 0 1064 566 10000000 10000000 1060 
0 634 828 10000000 1127 0 10000000 531 407 122 
0 10000000 10000000 310 566 10000000 0 10000000 10000000 10000000 
0 668 991 10000000 10000000 531 10000000 0 140 629 
0 665 974 10000000 10000000 407 10000000 140 0 499 
0 10000000 10000000 10000000 10000000 10000000 10000000 10000000 10000000 0 
EOF